
Gurobi 11.0.3 (linux64) logging started Fri Apr 17 02:57:14 2026

Set parameter LogFile to value "tree/results/ctmc/ctmc_depth-4_run-1/Full MIP/LogFile_FullModel.txt"
Gurobi Optimizer version 11.0.3 build v11.0.3rc0 (linux64 - "CentOS Linux 7 (Core)")

CPU model: Intel(R) Xeon(R) Platinum 8260 CPU @ 2.40GHz, instruction set [SSE2|AVX|AVX2|AVX512]
Thread count: 96 physical cores, 192 logical processors, using up to 32 threads

Optimize a model with 230453 rows, 141919 columns and 2835765 nonzeros
Model fingerprint: 0xc81cac42
Model has 17664 general constraints
Variable types: 88714 continuous, 53205 integer (53205 binary)
Coefficient statistics:
  Matrix range     [9e-04, 1e+04]
  Objective range  [9e-04, 1e+04]
  Bounds range     [1e+00, 1e+03]
  RHS range        [1e-04, 1e+03]

User MIP start produced solution with objective -38099.4 (0.98s)
Loaded user MIP start with objective -38099.4
Processed MIP start in 1.20 seconds (0.23 work units)

Presolve removed 70672 rows and 70656 columns (presolve time = 5s) ...
Presolve added 17648 rows and 70656 columns
Presolve time: 5.90s
Presolved: 248101 rows, 212575 columns, 2977149 nonzeros
Presolved model has 70656 SOS constraint(s)
Variable types: 88714 continuous, 123861 integer (123861 binary)

Deterministic concurrent LP optimizer: primal simplex, dual simplex, and barrier
Showing barrier log only...

Root relaxation presolved: 248101 rows, 212575 columns, 2977149 nonzeros

Root barrier log...

Ordering time: 0.14s

Barrier statistics:
 Dense cols : 180
 AA' NZ     : 3.053e+06
 Factor NZ  : 1.189e+07 (roughly 300 MB of memory)
 Factor Ops : 6.146e+08 (less than 1 second per iteration)
 Threads    : 30

                  Objective                Residual
Iter       Primal          Dual         Primal    Dual     Compl     Time
   0  -9.37170086e+04  3.40099538e+09  1.10e+04 0.00e+00  7.79e+05    12s
   1  -3.96639280e+04  5.59472883e+09  1.18e+03 3.37e+01  1.71e+05    13s
   2  -2.19176772e+04  4.77424641e+09  1.20e+02 4.63e+00  2.42e+04    14s
   3  -1.41712379e+04  1.32257693e+09  1.18e+01 5.80e-01  3.60e+03    15s
   4  -1.69373613e+03  1.57960506e+08  1.17e+00 5.72e-02  3.88e+02    16s
   5  -1.69005177e+02  1.86531043e+07  1.16e-01 5.72e-03  4.26e+01    16s
   6  -1.59985133e+01  1.90031567e+06  1.18e-02 5.74e-04  4.26e+00    17s
   7  -6.97842847e-01  1.98713935e+05  1.38e-03 6.01e-05  4.45e-01    18s
   8   8.32054789e-01  2.57733453e+04  3.19e-04 7.78e-06  5.77e-02    18s
   9   9.62144575e-01  2.68871498e+03  3.16e-05 8.05e-07  6.01e-03    19s
  10   9.96198390e-01  2.70333115e+02  3.14e-06 8.07e-08  6.02e-04    20s
  11   9.99619769e-01  2.81847867e+01  3.11e-07 8.07e-09  6.08e-05    21s
  12   9.99961977e-01  3.71848146e+00  3.11e-08 8.07e-10  6.08e-06    21s
  13   9.99996197e-01  1.27438626e+00  3.08e-09 8.08e-11  6.13e-07    22s
  14   9.99999620e-01  1.02743863e+00  3.08e-10 8.08e-12  6.13e-08    23s
  15   9.99999962e-01  1.00276948e+00  3.08e-11 8.09e-13  6.18e-09    25s
  16   9.99999996e-01  1.00027695e+00  3.27e-12 8.09e-14  6.18e-10    25s
  17   1.00000000e+00  1.00002769e+00  5.68e-13 8.09e-15  6.18e-11    26s
  18   1.00000000e+00  1.00000277e+00  4.55e-13 8.09e-16  6.18e-12    27s
  19   1.00000000e+00  1.00000028e+00  4.26e-13 8.09e-17  6.18e-13    28s
  20   1.00000000e+00  1.00000003e+00  4.26e-13 8.09e-18  6.18e-14    28s
  21   1.00000000e+00  1.00000000e+00  4.26e-13 8.09e-19  6.18e-15    29s

Barrier solved model in 21 iterations and 28.82 seconds (16.86 work units)
Optimal objective 1.00000000e+00


Root crossover log...

   10624 DPushes remaining with DInf 0.0000000e+00                29s
       0 DPushes remaining with DInf 0.0000000e+00                29s

   83603 PPushes remaining with PInf 0.0000000e+00                29s
   28472 PPushes remaining with PInf 0.0000000e+00                30s
       0 PPushes remaining with PInf 0.0000000e+00                33s

  Push phase complete: Pinf 0.0000000e+00, Dinf 0.0000000e+00     33s


Root simplex log...

Iteration    Objective       Primal Inf.    Dual Inf.      Time
   83607    1.0000000e+00   1.479797e-09   0.000000e+00     34s
   83608    1.0000000e+00   0.000000e+00   0.000000e+00     35s
   83608    1.0000000e+00   0.000000e+00   0.000000e+00     36s
Concurrent spin time: 0.45s

Solved with barrier

Root relaxation: objective 1.000000e+00, 83608 iterations, 27.54 seconds (14.72 work units)
Total elapsed time = 127.57s (DegenMoves)

    Nodes    |    Current Node    |     Objective Bounds      |     Work
 Expl Unexpl |  Obj  Depth IntInf | Incumbent    BestBd   Gap | It/Node Time

     0     0    1.00000    0 14811 -38099.419    1.00000   100%     -  128s
     0     2    1.00000    0 14811 -38099.419    1.00000   100%     -  859s
H    1     4                    -38099.41936    1.00000   100%  4183 1881s
     3     8    1.00000    2 14807 -38099.419    1.00000   100%  1395 1885s
     7    16    1.00000    3 14805 -38099.419    1.00000   100%   599 1890s
    15    32    1.00000    4 14803 -38099.419    1.00000   100%   280 1895s
    31    64    1.00000    5 14801 -38099.419    1.00000   100%   136 2440s
H   46    64                       0.5335145    1.00000  87.4%  91.9 2440s
H   95   128                       0.5344203    1.00000  87.1%  45.0 3600s
H  105   128                       0.5597826    1.00000  78.6%  40.8 3601s

Explored 127 nodes (92111 simplex iterations) in 3601.96 seconds (2366.06 work units)
Thread count was 32 (of 192 available processors)

Solution count 5: 0.559783 0.53442 0.533514 ... -38099.4

Time limit reached
Best objective 5.597826086960e-01, best bound 1.000000000000e+00, gap 78.6408%

User-callback calls 1277546, time in user-callback 8.68 sec
